p cnf 12 32
12 -11 -10 0
-12 -11 6 0
-12 -11 -5 0
12 9 -8 0
-12 5 3 0
12 -5 -1 0
-11 -10 6 0
11 -10 -1 0
11 10 1 0
-11 -9 2 0
11 7 -4 0
11 -6 2 0
11 5 4 0
10 -9 -1 0
-10 -7 5 0
-10 -7 3 0
10 -6 3 0
-10 5 -4 0
10 -5 2 0
-10 -4 -3 0
10 4 1 0
9 -8 -3 0
9 5 -3 0
-9 -4 -1 0
8 -7 1 0
7 -6 5 0
7 -6 -3 0
7 6 -3 0
-7 -4 3 0
-7 2 -1 0
6 5 4 0
-6 -2 -1 0
